
Log started (V11.0.0) Sun Apr 13 13:55:58 2008

Tried aggregator 1 time.
Reduced MIP has 220 rows, 4001 columns, and 8020 nonzeros.
Presolve time =    0.03 sec.
Clique table members: 200.
MIP emphasis: balance optimality and feasibility.
MIP search method: dynamic search.
Parallel mode: none, using 1 thread.
Root relaxation solution time =    0.08 sec.

        Nodes                                         Cuts/
   Node  Left     Objective  IInf  Best Integer     Best Node    ItCnt     Gap

*     0+    0                        10141.0000       54.2361      478   99.47%
*     0+    0                           67.0000       54.2361      478   19.05%
      0     0       55.0000    34       67.0000      Fract: 7      494   17.91%
*     0+    0                           66.0000       55.0000      494   16.67%
      0     0       55.0000    34       66.0000       Cuts: 2      499   16.67%
*     0+    0                           65.0000       55.0000      499   15.38%
      0     0       55.0000    38       65.0000     Covers: 1      513   15.38%
*     0+    0                           64.0000       55.0000      513   14.06%
*     0+    0                           58.0000       55.0000      513    5.17%

Repeating presolve.
Tried aggregator 1 time.
MIP Presolve eliminated 0 rows and 1853 columns.
Reduced MIP has 220 rows, 2148 columns, and 4314 nonzeros.
Tried aggregator 1 time.
Represolve time =    0.09 sec.
Clique table members: 398.
MIP emphasis: balance optimality and feasibility.
MIP search method: dynamic search.
Parallel mode: none, using 1 thread.
Root relaxation solution time =    0.05 sec.

        Nodes                                         Cuts/
   Node  Left     Objective  IInf  Best Integer     Best Node    ItCnt     Gap

      0     0       55.0000    37       58.0000       55.0000      387    5.17%
*     0+    0                           57.0000       55.0000      387    3.51%
      0     2       55.0000    37       57.0000       55.0000      387    3.51%
    100    60       56.0000    31       57.0000       55.0000     4959    3.51%
    200   130       56.0000    52       57.0000       55.0000     9702    3.51%
    300   216       56.0000    50       57.0000       55.0000    14939    3.51%
    400   297       56.0000    52       57.0000       55.0000    20318    3.51%
    500   374       55.0000    95       57.0000       55.0000    27383    3.51%
    600   387       56.0000    39       57.0000       55.0000    33437    3.51%
    700   392       56.0000    40       57.0000       55.0000    37480    3.51%
    800   400       55.0749   126       57.0000       55.0000    44307    3.51%
    900   412       56.0000    54       57.0000       55.0000    48002    3.51%
   1000   428       56.0000   121       57.0000       55.0000    53063    3.51%
Elapsed time =  18.48 sec. (tree size =  2.29 MB, solutions = 7)
   1100   463       56.0000    48       57.0000       55.0000    58225    3.51%
   1200   541       56.0000    41       57.0000       55.0000    63062    3.51%
   1300   630       56.0000    81       57.0000       55.0000    67830    3.51%
   1400   709    infeasible             57.0000       55.0000    74973    3.51%
   1500   803       56.0000    49       57.0000       55.0000    78502    3.51%
   1600   891       56.0000    58       57.0000       55.0000    83147    3.51%
   1700   969       56.0000    74       57.0000       55.0000    88696    3.51%
*  1724+   29                           56.0000       55.0000    90277    1.79%

Cover cuts applied:  432
Mixed integer rounding cuts applied:  14
Gomory fractional cuts applied:  6

Solution pool: 8 solutions saved.

MIP - Integer optimal solution:  Objective = 5.6000000000e+001
Solution time =   30.91 sec.  Iterations = 102500  Nodes = 1753


Incumbent solution
Variable Name           Solution Value
Cmax                         56.000000
X_1_8                         1.000000
X_2_2                         1.000000
X_3_3                         1.000000
X_4_2                         1.000000
X_5_11                        1.000000
X_6_15                        1.000000
X_7_19                        1.000000
X_8_14                        1.000000
X_9_3                         1.000000
X_10_14                       1.000000
X_11_8                        1.000000
X_12_4                        1.000000
X_13_5                        1.000000
X_14_14                       1.000000
X_15_16                       1.000000
X_16_1                        1.000000
X_17_2                        1.000000
X_18_3                        1.000000
X_19_4                        1.000000
X_20_1                        1.000000
X_21_19                       1.000000
X_22_13                       1.000000
X_23_11                       1.000000
X_24_15                       1.000000
X_25_9                        1.000000
X_26_4                        1.000000
X_27_9                        1.000000
X_28_10                       1.000000
X_29_20                       1.000000
X_30_8                        1.000000
X_31_17                       1.000000
X_32_13                       1.000000
X_33_20                       1.000000
X_34_4                        1.000000
X_35_6                        1.000000
X_36_9                        1.000000
X_37_20                       1.000000
X_38_4                        1.000000
X_39_17                       1.000000
X_40_15                       1.000000
X_41_11                       1.000000
X_42_2                        1.000000
X_43_10                       1.000000
X_44_18                       1.000000
X_45_17                       1.000000
X_46_20                       1.000000
X_47_3                        1.000000
X_48_4                        1.000000
X_49_13                       1.000000
X_50_11                       1.000000
X_51_9                        1.000000
X_52_17                       1.000000
X_53_14                       1.000000
X_54_5                        1.000000
X_55_17                       1.000000
X_56_7                        1.000000
X_57_14                       1.000000
X_58_2                        1.000000
X_59_20                       1.000000
X_60_6                        1.000000
X_61_4                        1.000000
X_62_10                       1.000000
X_63_7                        1.000000
X_64_12                       1.000000
X_65_6                        1.000000
X_66_15                       1.000000
X_67_15                       1.000000
X_68_13                       1.000000
X_69_3                        1.000000
X_70_11                       1.000000
X_71_4                        1.000000
X_72_4                        1.000000
X_73_19                       1.000000
X_74_19                       1.000000
X_75_13                       1.000000
X_76_8                        1.000000
X_77_14                       1.000000
X_78_4                        1.000000
X_79_11                       1.000000
X_80_11                       1.000000
X_81_10                       1.000000
X_82_12                       1.000000
X_83_15                       1.000000
X_84_15                       1.000000
X_85_15                       1.000000
X_86_6                        1.000000
X_87_5                        1.000000
X_88_2                        1.000000
X_89_20                       1.000000
X_90_14                       1.000000
X_91_4                        1.000000
X_92_7                        1.000000
X_93_2                        1.000000
X_94_7                        1.000000
X_95_16                       1.000000
X_96_20                       1.000000
X_97_2                        1.000000
X_98_17                       1.000000
X_99_20                       1.000000
X_100_19                      1.000000
X_101_13                      1.000000
X_102_3                       1.000000
X_103_5                       1.000000
X_104_15                      1.000000
X_105_2                       1.000000
X_106_10                      1.000000
X_107_3                       1.000000
X_108_5                       1.000000
X_109_6                       1.000000
X_110_12                      1.000000
X_111_14                      1.000000
X_112_18                      1.000000
X_113_9                       1.000000
X_114_3                       1.000000
X_115_15                      1.000000
X_116_14                      1.000000
X_117_17                      1.000000
X_118_17                      1.000000
X_119_12                      1.000000
X_120_20                      1.000000
X_121_11                      1.000000
X_122_9                       1.000000
X_123_4                       1.000000
X_124_1                       1.000000
X_125_10                      1.000000
X_126_12                      1.000000
X_127_9                       1.000000
X_128_5                       1.000000
X_129_8                       1.000000
X_130_7                       1.000000
X_131_16                      1.000000
X_132_14                      1.000000
X_133_20                      1.000000
X_134_1                       1.000000
X_135_19                      1.000000
X_136_19                      1.000000
X_137_9                       1.000000
X_138_9                       1.000000
X_139_7                       1.000000
X_140_12                      1.000000
X_141_16                      1.000000
X_142_20                      1.000000
X_143_13                      1.000000
X_144_14                      1.000000
X_145_17                      1.000000
X_146_1                       1.000000
X_147_13                      1.000000
X_148_16                      1.000000
X_149_7                       1.000000
X_150_11                      1.000000
X_151_4                       1.000000
X_152_15                      1.000000
X_153_7                       1.000000
X_154_18                      1.000000
X_155_11                      1.000000
X_156_6                       1.000000
X_157_17                      1.000000
X_158_13                      1.000000
X_159_14                      1.000000
X_160_14                      1.000000
X_161_4                       1.000000
X_162_6                       1.000000
X_163_18                      1.000000
X_164_16                      1.000000
X_165_8                       1.000000
X_166_18                      1.000000
X_167_9                       1.000000
X_168_9                       1.000000
X_169_15                      1.000000
X_170_16                      1.000000
X_171_15                      1.000000
X_172_20                      1.000000
X_173_3                       1.000000
X_174_5                       1.000000
X_175_5                       1.000000
X_176_18                      1.000000
X_177_4                       1.000000
X_178_8                       1.000000
X_179_16                      1.000000
X_180_5                       1.000000
X_181_11                      1.000000
X_182_8                       1.000000
X_183_18                      1.000000
X_184_1                       1.000000
X_185_15                      1.000000
X_186_3                       1.000000
X_187_8                       1.000000
X_188_19                      1.000000
X_189_17                      1.000000
X_190_1                       1.000000
X_191_10                      1.000000
X_192_14                      1.000000
X_193_12                      1.000000
X_194_15                      1.000000
X_195_8                       1.000000
X_196_19                      1.000000
X_197_3                       1.000000
X_198_16                      1.000000
X_199_19                      1.000000
X_200_11                      1.000000
All other variables in the range 1-4001 are 0.
